(set-logic QF_LRA)
(declare-fun X0 () Real )
(declare-fun Y0 () Real )
(declare-fun X1 () Real )
(declare-fun Y1 () Real )
(declare-fun X2 () Real )
(declare-fun Y2 () Real )
(declare-fun X3 () Real )
(declare-fun Y3 () Real )
(declare-fun X4 () Real )
(declare-fun Y4 () Real )
(declare-fun X5 () Real )
(declare-fun Y5 () Real )
(declare-fun X6 () Real )
(declare-fun Y6 () Real )
(declare-fun X7 () Real )
(declare-fun Y7 () Real )
(declare-fun X8 () Real )
(declare-fun Y8 () Real )
(declare-fun X9 () Real )
(declare-fun Y9 () Real )
(declare-fun X10 () Real )
(declare-fun Y10 () Real )
(declare-fun X11 () Real )
(declare-fun Y11 () Real )
(declare-fun X12 () Real )
(declare-fun Y12 () Real )
(declare-fun X13 () Real )
(declare-fun Y13 () Real )
(declare-fun X14 () Real )
(declare-fun Y14 () Real )
(declare-fun Z () Real )
(declare-fun k () Real )
(assert (let
(( $goal (>= Z k) ))
(let
((
$phi ( and 
( or ( <= ( + X0 64 ) X1 )  ( <= ( + X1 76 ) X0 )  ( <= ( + Y0 66 ) Y1 )  ( <= ( + Y1 52 ) Y0 )  )
( or ( <= ( + X0 64 ) X2 )  ( <= ( + X2 78 ) X0 )  ( <= ( + Y0 66 ) Y2 )  ( <= ( + Y2 22 ) Y0 )  )
( or ( <= ( + X0 64 ) X3 )  ( <= ( + X3 94 ) X0 )  ( <= ( + Y0 66 ) Y3 )  ( <= ( + Y3 82 ) Y0 )  )
( or ( <= ( + X0 64 ) X4 )  ( <= ( + X4 100 ) X0 )  ( <= ( + Y0 66 ) Y4 )  ( <= ( + Y4 27 ) Y0 )  )
( or ( <= ( + X0 64 ) X5 )  ( <= ( + X5 72 ) X0 )  ( <= ( + Y0 66 ) Y5 )  ( <= ( + Y5 20 ) Y0 )  )
( or ( <= ( + X0 64 ) X6 )  ( <= ( + X6 77 ) X0 )  ( <= ( + Y0 66 ) Y6 )  ( <= ( + Y6 35 ) Y0 )  )
( or ( <= ( + X0 64 ) X7 )  ( <= ( + X7 6 ) X0 )  ( <= ( + Y0 66 ) Y7 )  ( <= ( + Y7 98 ) Y0 )  )
( or ( <= ( + X0 64 ) X8 )  ( <= ( + X8 1 ) X0 )  ( <= ( + Y0 66 ) Y8 )  ( <= ( + Y8 28 ) Y0 )  )
( or ( <= ( + X0 64 ) X9 )  ( <= ( + X9 43 ) X0 )  ( <= ( + Y0 66 ) Y9 )  ( <= ( + Y9 51 ) Y0 )  )
( or ( <= ( + X0 64 ) X10 )  ( <= ( + X10 73 ) X0 )  ( <= ( + Y0 66 ) Y10 )  ( <= ( + Y10 98 ) Y0 )  )
( or ( <= ( + X0 64 ) X11 )  ( <= ( + X11 61 ) X0 )  ( <= ( + Y0 66 ) Y11 )  ( <= ( + Y11 72 ) Y0 )  )
( or ( <= ( + X0 64 ) X12 )  ( <= ( + X12 74 ) X0 )  ( <= ( + Y0 66 ) Y12 )  ( <= ( + Y12 67 ) Y0 )  )
( or ( <= ( + X0 64 ) X13 )  ( <= ( + X13 9 ) X0 )  ( <= ( + Y0 66 ) Y13 )  ( <= ( + Y13 58 ) Y0 )  )
( or ( <= ( + X0 64 ) X14 )  ( <= ( + X14 42 ) X0 )  ( <= ( + Y0 66 ) Y14 )  ( <= ( + Y14 8 ) Y0 )  )
( or ( <= ( + X1 76 ) X2 )  ( <= ( + X2 78 ) X1 )  ( <= ( + Y1 52 ) Y2 )  ( <= ( + Y2 22 ) Y1 )  )
( or ( <= ( + X1 76 ) X3 )  ( <= ( + X3 94 ) X1 )  ( <= ( + Y1 52 ) Y3 )  ( <= ( + Y3 82 ) Y1 )  )
( or ( <= ( + X1 76 ) X4 )  ( <= ( + X4 100 ) X1 )  ( <= ( + Y1 52 ) Y4 )  ( <= ( + Y4 27 ) Y1 )  )
( or ( <= ( + X1 76 ) X5 )  ( <= ( + X5 72 ) X1 )  ( <= ( + Y1 52 ) Y5 )  ( <= ( + Y5 20 ) Y1 )  )
( or ( <= ( + X1 76 ) X6 )  ( <= ( + X6 77 ) X1 )  ( <= ( + Y1 52 ) Y6 )  ( <= ( + Y6 35 ) Y1 )  )
( or ( <= ( + X1 76 ) X7 )  ( <= ( + X7 6 ) X1 )  ( <= ( + Y1 52 ) Y7 )  ( <= ( + Y7 98 ) Y1 )  )
( or ( <= ( + X1 76 ) X8 )  ( <= ( + X8 1 ) X1 )  ( <= ( + Y1 52 ) Y8 )  ( <= ( + Y8 28 ) Y1 )  )
( or ( <= ( + X1 76 ) X9 )  ( <= ( + X9 43 ) X1 )  ( <= ( + Y1 52 ) Y9 )  ( <= ( + Y9 51 ) Y1 )  )
( or ( <= ( + X1 76 ) X10 )  ( <= ( + X10 73 ) X1 )  ( <= ( + Y1 52 ) Y10 )  ( <= ( + Y10 98 ) Y1 )  )
( or ( <= ( + X1 76 ) X11 )  ( <= ( + X11 61 ) X1 )  ( <= ( + Y1 52 ) Y11 )  ( <= ( + Y11 72 ) Y1 )  )
( or ( <= ( + X1 76 ) X12 )  ( <= ( + X12 74 ) X1 )  ( <= ( + Y1 52 ) Y12 )  ( <= ( + Y12 67 ) Y1 )  )
( or ( <= ( + X1 76 ) X13 )  ( <= ( + X13 9 ) X1 )  ( <= ( + Y1 52 ) Y13 )  ( <= ( + Y13 58 ) Y1 )  )
( or ( <= ( + X1 76 ) X14 )  ( <= ( + X14 42 ) X1 )  ( <= ( + Y1 52 ) Y14 )  ( <= ( + Y14 8 ) Y1 )  )
( or ( <= ( + X2 78 ) X3 )  ( <= ( + X3 94 ) X2 )  ( <= ( + Y2 22 ) Y3 )  ( <= ( + Y3 82 ) Y2 )  )
( or ( <= ( + X2 78 ) X4 )  ( <= ( + X4 100 ) X2 )  ( <= ( + Y2 22 ) Y4 )  ( <= ( + Y4 27 ) Y2 )  )
( or ( <= ( + X2 78 ) X5 )  ( <= ( + X5 72 ) X2 )  ( <= ( + Y2 22 ) Y5 )  ( <= ( + Y5 20 ) Y2 )  )
( or ( <= ( + X2 78 ) X6 )  ( <= ( + X6 77 ) X2 )  ( <= ( + Y2 22 ) Y6 )  ( <= ( + Y6 35 ) Y2 )  )
( or ( <= ( + X2 78 ) X7 )  ( <= ( + X7 6 ) X2 )  ( <= ( + Y2 22 ) Y7 )  ( <= ( + Y7 98 ) Y2 )  )
( or ( <= ( + X2 78 ) X8 )  ( <= ( + X8 1 ) X2 )  ( <= ( + Y2 22 ) Y8 )  ( <= ( + Y8 28 ) Y2 )  )
( or ( <= ( + X2 78 ) X9 )  ( <= ( + X9 43 ) X2 )  ( <= ( + Y2 22 ) Y9 )  ( <= ( + Y9 51 ) Y2 )  )
( or ( <= ( + X2 78 ) X10 )  ( <= ( + X10 73 ) X2 )  ( <= ( + Y2 22 ) Y10 )  ( <= ( + Y10 98 ) Y2 )  )
( or ( <= ( + X2 78 ) X11 )  ( <= ( + X11 61 ) X2 )  ( <= ( + Y2 22 ) Y11 )  ( <= ( + Y11 72 ) Y2 )  )
( or ( <= ( + X2 78 ) X12 )  ( <= ( + X12 74 ) X2 )  ( <= ( + Y2 22 ) Y12 )  ( <= ( + Y12 67 ) Y2 )  )
( or ( <= ( + X2 78 ) X13 )  ( <= ( + X13 9 ) X2 )  ( <= ( + Y2 22 ) Y13 )  ( <= ( + Y13 58 ) Y2 )  )
( or ( <= ( + X2 78 ) X14 )  ( <= ( + X14 42 ) X2 )  ( <= ( + Y2 22 ) Y14 )  ( <= ( + Y14 8 ) Y2 )  )
( or ( <= ( + X3 94 ) X4 )  ( <= ( + X4 100 ) X3 )  ( <= ( + Y3 82 ) Y4 )  ( <= ( + Y4 27 ) Y3 )  )
( or ( <= ( + X3 94 ) X5 )  ( <= ( + X5 72 ) X3 )  ( <= ( + Y3 82 ) Y5 )  ( <= ( + Y5 20 ) Y3 )  )
( or ( <= ( + X3 94 ) X6 )  ( <= ( + X6 77 ) X3 )  ( <= ( + Y3 82 ) Y6 )  ( <= ( + Y6 35 ) Y3 )  )
( or ( <= ( + X3 94 ) X7 )  ( <= ( + X7 6 ) X3 )  ( <= ( + Y3 82 ) Y7 )  ( <= ( + Y7 98 ) Y3 )  )
( or ( <= ( + X3 94 ) X8 )  ( <= ( + X8 1 ) X3 )  ( <= ( + Y3 82 ) Y8 )  ( <= ( + Y8 28 ) Y3 )  )
( or ( <= ( + X3 94 ) X9 )  ( <= ( + X9 43 ) X3 )  ( <= ( + Y3 82 ) Y9 )  ( <= ( + Y9 51 ) Y3 )  )
( or ( <= ( + X3 94 ) X10 )  ( <= ( + X10 73 ) X3 )  ( <= ( + Y3 82 ) Y10 )  ( <= ( + Y10 98 ) Y3 )  )
( or ( <= ( + X3 94 ) X11 )  ( <= ( + X11 61 ) X3 )  ( <= ( + Y3 82 ) Y11 )  ( <= ( + Y11 72 ) Y3 )  )
( or ( <= ( + X3 94 ) X12 )  ( <= ( + X12 74 ) X3 )  ( <= ( + Y3 82 ) Y12 )  ( <= ( + Y12 67 ) Y3 )  )
( or ( <= ( + X3 94 ) X13 )  ( <= ( + X13 9 ) X3 )  ( <= ( + Y3 82 ) Y13 )  ( <= ( + Y13 58 ) Y3 )  )
( or ( <= ( + X3 94 ) X14 )  ( <= ( + X14 42 ) X3 )  ( <= ( + Y3 82 ) Y14 )  ( <= ( + Y14 8 ) Y3 )  )
( or ( <= ( + X4 100 ) X5 )  ( <= ( + X5 72 ) X4 )  ( <= ( + Y4 27 ) Y5 )  ( <= ( + Y5 20 ) Y4 )  )
( or ( <= ( + X4 100 ) X6 )  ( <= ( + X6 77 ) X4 )  ( <= ( + Y4 27 ) Y6 )  ( <= ( + Y6 35 ) Y4 )  )
( or ( <= ( + X4 100 ) X7 )  ( <= ( + X7 6 ) X4 )  ( <= ( + Y4 27 ) Y7 )  ( <= ( + Y7 98 ) Y4 )  )
( or ( <= ( + X4 100 ) X8 )  ( <= ( + X8 1 ) X4 )  ( <= ( + Y4 27 ) Y8 )  ( <= ( + Y8 28 ) Y4 )  )
( or ( <= ( + X4 100 ) X9 )  ( <= ( + X9 43 ) X4 )  ( <= ( + Y4 27 ) Y9 )  ( <= ( + Y9 51 ) Y4 )  )
( or ( <= ( + X4 100 ) X10 )  ( <= ( + X10 73 ) X4 )  ( <= ( + Y4 27 ) Y10 )  ( <= ( + Y10 98 ) Y4 )  )
( or ( <= ( + X4 100 ) X11 )  ( <= ( + X11 61 ) X4 )  ( <= ( + Y4 27 ) Y11 )  ( <= ( + Y11 72 ) Y4 )  )
( or ( <= ( + X4 100 ) X12 )  ( <= ( + X12 74 ) X4 )  ( <= ( + Y4 27 ) Y12 )  ( <= ( + Y12 67 ) Y4 )  )
( or ( <= ( + X4 100 ) X13 )  ( <= ( + X13 9 ) X4 )  ( <= ( + Y4 27 ) Y13 )  ( <= ( + Y13 58 ) Y4 )  )
( or ( <= ( + X4 100 ) X14 )  ( <= ( + X14 42 ) X4 )  ( <= ( + Y4 27 ) Y14 )  ( <= ( + Y14 8 ) Y4 )  )
( or ( <= ( + X5 72 ) X6 )  ( <= ( + X6 77 ) X5 )  ( <= ( + Y5 20 ) Y6 )  ( <= ( + Y6 35 ) Y5 )  )
( or ( <= ( + X5 72 ) X7 )  ( <= ( + X7 6 ) X5 )  ( <= ( + Y5 20 ) Y7 )  ( <= ( + Y7 98 ) Y5 )  )
( or ( <= ( + X5 72 ) X8 )  ( <= ( + X8 1 ) X5 )  ( <= ( + Y5 20 ) Y8 )  ( <= ( + Y8 28 ) Y5 )  )
( or ( <= ( + X5 72 ) X9 )  ( <= ( + X9 43 ) X5 )  ( <= ( + Y5 20 ) Y9 )  ( <= ( + Y9 51 ) Y5 )  )
( or ( <= ( + X5 72 ) X10 )  ( <= ( + X10 73 ) X5 )  ( <= ( + Y5 20 ) Y10 )  ( <= ( + Y10 98 ) Y5 )  )
( or ( <= ( + X5 72 ) X11 )  ( <= ( + X11 61 ) X5 )  ( <= ( + Y5 20 ) Y11 )  ( <= ( + Y11 72 ) Y5 )  )
( or ( <= ( + X5 72 ) X12 )  ( <= ( + X12 74 ) X5 )  ( <= ( + Y5 20 ) Y12 )  ( <= ( + Y12 67 ) Y5 )  )
( or ( <= ( + X5 72 ) X13 )  ( <= ( + X13 9 ) X5 )  ( <= ( + Y5 20 ) Y13 )  ( <= ( + Y13 58 ) Y5 )  )
( or ( <= ( + X5 72 ) X14 )  ( <= ( + X14 42 ) X5 )  ( <= ( + Y5 20 ) Y14 )  ( <= ( + Y14 8 ) Y5 )  )
( or ( <= ( + X6 77 ) X7 )  ( <= ( + X7 6 ) X6 )  ( <= ( + Y6 35 ) Y7 )  ( <= ( + Y7 98 ) Y6 )  )
( or ( <= ( + X6 77 ) X8 )  ( <= ( + X8 1 ) X6 )  ( <= ( + Y6 35 ) Y8 )  ( <= ( + Y8 28 ) Y6 )  )
( or ( <= ( + X6 77 ) X9 )  ( <= ( + X9 43 ) X6 )  ( <= ( + Y6 35 ) Y9 )  ( <= ( + Y9 51 ) Y6 )  )
( or ( <= ( + X6 77 ) X10 )  ( <= ( + X10 73 ) X6 )  ( <= ( + Y6 35 ) Y10 )  ( <= ( + Y10 98 ) Y6 )  )
( or ( <= ( + X6 77 ) X11 )  ( <= ( + X11 61 ) X6 )  ( <= ( + Y6 35 ) Y11 )  ( <= ( + Y11 72 ) Y6 )  )
( or ( <= ( + X6 77 ) X12 )  ( <= ( + X12 74 ) X6 )  ( <= ( + Y6 35 ) Y12 )  ( <= ( + Y12 67 ) Y6 )  )
( or ( <= ( + X6 77 ) X13 )  ( <= ( + X13 9 ) X6 )  ( <= ( + Y6 35 ) Y13 )  ( <= ( + Y13 58 ) Y6 )  )
( or ( <= ( + X6 77 ) X14 )  ( <= ( + X14 42 ) X6 )  ( <= ( + Y6 35 ) Y14 )  ( <= ( + Y14 8 ) Y6 )  )
( or ( <= ( + X7 6 ) X8 )  ( <= ( + X8 1 ) X7 )  ( <= ( + Y7 98 ) Y8 )  ( <= ( + Y8 28 ) Y7 )  )
( or ( <= ( + X7 6 ) X9 )  ( <= ( + X9 43 ) X7 )  ( <= ( + Y7 98 ) Y9 )  ( <= ( + Y9 51 ) Y7 )  )
( or ( <= ( + X7 6 ) X10 )  ( <= ( + X10 73 ) X7 )  ( <= ( + Y7 98 ) Y10 )  ( <= ( + Y10 98 ) Y7 )  )
( or ( <= ( + X7 6 ) X11 )  ( <= ( + X11 61 ) X7 )  ( <= ( + Y7 98 ) Y11 )  ( <= ( + Y11 72 ) Y7 )  )
( or ( <= ( + X7 6 ) X12 )  ( <= ( + X12 74 ) X7 )  ( <= ( + Y7 98 ) Y12 )  ( <= ( + Y12 67 ) Y7 )  )
( or ( <= ( + X7 6 ) X13 )  ( <= ( + X13 9 ) X7 )  ( <= ( + Y7 98 ) Y13 )  ( <= ( + Y13 58 ) Y7 )  )
( or ( <= ( + X7 6 ) X14 )  ( <= ( + X14 42 ) X7 )  ( <= ( + Y7 98 ) Y14 )  ( <= ( + Y14 8 ) Y7 )  )
( or ( <= ( + X8 1 ) X9 )  ( <= ( + X9 43 ) X8 )  ( <= ( + Y8 28 ) Y9 )  ( <= ( + Y9 51 ) Y8 )  )
( or ( <= ( + X8 1 ) X10 )  ( <= ( + X10 73 ) X8 )  ( <= ( + Y8 28 ) Y10 )  ( <= ( + Y10 98 ) Y8 )  )
( or ( <= ( + X8 1 ) X11 )  ( <= ( + X11 61 ) X8 )  ( <= ( + Y8 28 ) Y11 )  ( <= ( + Y11 72 ) Y8 )  )
( or ( <= ( + X8 1 ) X12 )  ( <= ( + X12 74 ) X8 )  ( <= ( + Y8 28 ) Y12 )  ( <= ( + Y12 67 ) Y8 )  )
( or ( <= ( + X8 1 ) X13 )  ( <= ( + X13 9 ) X8 )  ( <= ( + Y8 28 ) Y13 )  ( <= ( + Y13 58 ) Y8 )  )
( or ( <= ( + X8 1 ) X14 )  ( <= ( + X14 42 ) X8 )  ( <= ( + Y8 28 ) Y14 )  ( <= ( + Y14 8 ) Y8 )  )
( or ( <= ( + X9 43 ) X10 )  ( <= ( + X10 73 ) X9 )  ( <= ( + Y9 51 ) Y10 )  ( <= ( + Y10 98 ) Y9 )  )
( or ( <= ( + X9 43 ) X11 )  ( <= ( + X11 61 ) X9 )  ( <= ( + Y9 51 ) Y11 )  ( <= ( + Y11 72 ) Y9 )  )
( or ( <= ( + X9 43 ) X12 )  ( <= ( + X12 74 ) X9 )  ( <= ( + Y9 51 ) Y12 )  ( <= ( + Y12 67 ) Y9 )  )
( or ( <= ( + X9 43 ) X13 )  ( <= ( + X13 9 ) X9 )  ( <= ( + Y9 51 ) Y13 )  ( <= ( + Y13 58 ) Y9 )  )
( or ( <= ( + X9 43 ) X14 )  ( <= ( + X14 42 ) X9 )  ( <= ( + Y9 51 ) Y14 )  ( <= ( + Y14 8 ) Y9 )  )
( or ( <= ( + X10 73 ) X11 )  ( <= ( + X11 61 ) X10 )  ( <= ( + Y10 98 ) Y11 )  ( <= ( + Y11 72 ) Y10 )  )
( or ( <= ( + X10 73 ) X12 )  ( <= ( + X12 74 ) X10 )  ( <= ( + Y10 98 ) Y12 )  ( <= ( + Y12 67 ) Y10 )  )
( or ( <= ( + X10 73 ) X13 )  ( <= ( + X13 9 ) X10 )  ( <= ( + Y10 98 ) Y13 )  ( <= ( + Y13 58 ) Y10 )  )
( or ( <= ( + X10 73 ) X14 )  ( <= ( + X14 42 ) X10 )  ( <= ( + Y10 98 ) Y14 )  ( <= ( + Y14 8 ) Y10 )  )
( or ( <= ( + X11 61 ) X12 )  ( <= ( + X12 74 ) X11 )  ( <= ( + Y11 72 ) Y12 )  ( <= ( + Y12 67 ) Y11 )  )
( or ( <= ( + X11 61 ) X13 )  ( <= ( + X13 9 ) X11 )  ( <= ( + Y11 72 ) Y13 )  ( <= ( + Y13 58 ) Y11 )  )
( or ( <= ( + X11 61 ) X14 )  ( <= ( + X14 42 ) X11 )  ( <= ( + Y11 72 ) Y14 )  ( <= ( + Y14 8 ) Y11 )  )
( or ( <= ( + X12 74 ) X13 )  ( <= ( + X13 9 ) X12 )  ( <= ( + Y12 67 ) Y13 )  ( <= ( + Y13 58 ) Y12 )  )
( or ( <= ( + X12 74 ) X14 )  ( <= ( + X14 42 ) X12 )  ( <= ( + Y12 67 ) Y14 )  ( <= ( + Y14 8 ) Y12 )  )
( or ( <= ( + X13 9 ) X14 )  ( <= ( + X14 42 ) X13 )  ( <= ( + Y13 58 ) Y14 )  ( <= ( + Y14 8 ) Y13 )  )
( >= X0 0)
( <= ( + X0 64) Z)
( >= Y0 0)
( <= ( + Y0 66 ) 100)
( >= X1 0)
( <= ( + X1 76) Z)
( >= Y1 0)
( <= ( + Y1 52 ) 100)
( >= X2 0)
( <= ( + X2 78) Z)
( >= Y2 0)
( <= ( + Y2 22 ) 100)
( >= X3 0)
( <= ( + X3 94) Z)
( >= Y3 0)
( <= ( + Y3 82 ) 100)
( >= X4 0)
( <= ( + X4 100) Z)
( >= Y4 0)
( <= ( + Y4 27 ) 100)
( >= X5 0)
( <= ( + X5 72) Z)
( >= Y5 0)
( <= ( + Y5 20 ) 100)
( >= X6 0)
( <= ( + X6 77) Z)
( >= Y6 0)
( <= ( + Y6 35 ) 100)
( >= X7 0)
( <= ( + X7 6) Z)
( >= Y7 0)
( <= ( + Y7 98 ) 100)
( >= X8 0)
( <= ( + X8 1) Z)
( >= Y8 0)
( <= ( + Y8 28 ) 100)
( >= X9 0)
( <= ( + X9 43) Z)
( >= Y9 0)
( <= ( + Y9 51 ) 100)
( >= X10 0)
( <= ( + X10 73) Z)
( >= Y10 0)
( <= ( + Y10 98 ) 100)
( >= X11 0)
( <= ( + X11 61) Z)
( >= Y11 0)
( <= ( + Y11 72 ) 100)
( >= X12 0)
( <= ( + X12 74) Z)
( >= Y12 0)
( <= ( + Y12 67 ) 100)
( >= X13 0)
( <= ( + X13 9) Z)
( >= Y13 0)
( <= ( + Y13 58 ) 100)
( >= X14 0)
( <= ( + X14 42) Z)
( >= Y14 0)
( <= ( + Y14 8 ) 100)
) )
)(=> $phi $goal))))